Nb of jobs, Nb of Machines, Time seed, Machine seed, Upper bound, Lower bound
3,8,-1,-1,-1,-1
Times
6,13,90,15,97,18,25,85
86,14,86,14,84,5,9,85
55,82,74,3,32,25,25,7
Machines
2,7,8,5,4,3,1,6
6,7,2,4,5,1,3,8
8,5,7,4,1,2,6,3
